1000
[150,151,152,153,154,155,156,157,159,160,161,162,163,164,165,166,167,168,169,171,172,174,175,177,178,179,180,181,182,184,185,186,187,188,189,190,191,192,193,194,195,196,197,198,199,200]
[1,3,4,3,5,3,3,3,3,1,1,3,3,3,1,3,2,3,1,2,2,1,4,3,2,2,2,3,2,2,1,4,1,2,1,1,4,3,4,2,4,3,4,4,5,3]
